&CONTROL
   calculation      = 'relax'
   restart_mode     = 'from_scratch'
   tstress          = .false.
   tprnfor          = .true.
   outdir           = './out/'
   prefix           = 'slab_Nb2O5'
   max_seconds      = 86000
   etot_conv_thr    = 0.00014
   forc_conv_thr    = 0.0001
   pseudo_dir       = '/home/x/Workspace/espresso/pseudo'
   tefield          = .true.
   dipfield         = .true.
/
&SYSTEM
   ecutwfc          = 60.0
   ecutrho          = 480
   occupations      = 'smearing'
   degauss          = 0.01
   smearing         = 'cold'
   nspin            = 2
   edir             = 3
   emaxpos          = 0.95
   eopreg           = 0.05
   starting_magnetization(1) = 0.0
   starting_magnetization(2) = 0.5
   starting_magnetization(3) = 0.5
   starting_magnetization(4) = 0.0
   ntyp             = 4
   nat              = 79
   ibrav            = 0
/
&ELECTRONS
   electron_maxstep = 200
   conv_thr         = 1.2e-09
   mixing_beta      = 0.2
/
&IONS
/
&CELL
/
&FCP
/
&RISM
/
ATOMIC_SPECIES
Mg  24.305 Mg.pbe-n-kjpaw_psl.0.3.0.UPF
Ni  58.6934 ni_pbe_v1.4.uspp.F.UPF
Nb  92.90637 Nb.pbe-spn-kjpaw_psl.0.3.0.UPF
O  15.999 O.pbe-n-kjpaw_psl.0.1.UPF

K_POINTS automatic
4 4 1  0 0 0

CELL_PARAMETERS angstrom
10.39490208380000 0.00000000000000 0.00000000000000
-5.19745104180000 9.00224927440000 0.00000000000000
0.00000000000000 0.00000000000000 36.53300951809999

ATOMIC_POSITIONS angstrom
Mg  -1.3173663055 3.7613315492 23.0020141344  
Mg  -0.0000000000 1.4795861759 18.6012084806  
Mg  3.9160918265 0.7397930880 23.0020141344  
Mg  2.5987255209 3.0215384613 18.6012084806  
Mg  1.3173663055 3.7613315492 14.2004028269   0 0 0
Mg  1.2813592154 0.7397930880 14.2004028269   0 0 0
Mg  1.2993627605 2.2505623186 21.4710187506  
Mg  2.5987255209 0.0000000000 20.1322038644  
Mg  1.2993627605 2.2505623186 24.5330095181  
Mg  2.5987255209 0.0000000000 17.0702130969   0 0 0
Mg  3.8980882814 2.2505623186 15.7313982107   0 0 0
Mg  3.8980882814 2.2505623186 12.6694074432   0 0 0
Ni  1.2993627605 2.2505623186 16.4008056537   0 0 0
Ni  2.5987255209 0.0000000000 12.0000000000   0 0 0
Ni  3.8980882814 2.2505623186 20.8016113075  
Ni  0.0000000000 0.0000000000 16.4008056537   0 0 0
Ni  0.0000000000 0.0000000000 12.0000000000   0 0 0
Ni  0.0000000000 0.0000000000 20.8016113075  
Mg  -3.9160918264 8.2624561864 23.0020141344  
Mg  -2.5987255209 5.9807108131 18.6012084806  
Mg  1.3173663056 5.2409177252 23.0020141344  
Mg  -0.0000000000 7.5226630985 18.6012084806  
Mg  -1.2813592154 8.2624561864 14.2004028269   0 0 0
Mg  -1.3173663055 5.2409177252 14.2004028269   0 0 0
Mg  -1.2993627604 6.7516869558 21.4710187506  
Mg  -0.0000000000 4.5011246372 20.1322038644  
Mg  -1.2993627604 6.7516869558 24.5330095181  
Mg  -0.0000000000 4.5011246372 17.0702130969   0 0 0
Mg  1.2993627605 6.7516869558 15.7313982107   0 0 0
Mg  1.2993627605 6.7516869558 12.6694074432   0 0 0
Ni  -1.2993627604 6.7516869558 16.4008056537   0 0 0
Ni  -0.0000000000 4.5011246372 12.0000000000   0 0 0
Ni  1.2993627605 6.7516869558 20.8016113075  
Ni  -2.5987255209 4.5011246372 16.4008056537   0 0 0
Ni  -2.5987255209 4.5011246372 12.0000000000   0 0 0
Ni  -2.5987255209 4.5011246372 20.8016113075  
Mg  3.8800847364 3.7613315492 23.0020141344  
Mg  5.1974510419 1.4795861759 18.6012084806  
Mg  9.1135428684 0.7397930880 23.0020141344  
Mg  7.7961765628 3.0215384613 18.6012084806  
Mg  6.5148173474 3.7613315492 14.2004028269   0 0 0
Mg  6.4788102573 0.7397930880 14.2004028269   0 0 0
Mg  6.4968138024 2.2505623186 21.4710187506  
Mg  7.7961765628 0.0000000000 20.1322038644  
Mg  6.4968138024 2.2505623186 24.5330095181  
Mg  7.7961765628 0.0000000000 17.0702130969   0 0 0
Mg  9.0955393233 2.2505623186 15.7313982107   0 0 0
Mg  9.0955393233 2.2505623186 12.6694074432   0 0 0
Ni  6.4968138024 2.2505623186 16.4008056537   0 0 0
Ni  7.7961765628 0.0000000000 12.0000000000   0 0 0
Ni  9.0955393233 2.2505623186 20.8016113075  
Ni  5.1974510419 0.0000000000 16.4008056537   0 0 0
Ni  5.1974510419 0.0000000000 12.0000000000   0 0 0
Ni  5.1974510419 0.0000000000 20.8016113075  
Mg  1.2813592155 8.2624561864 23.0020141344  
Mg  2.5987255210 5.9807108131 18.6012084806  
Mg  6.5148173475 5.2409177252 23.0020141344  
Mg  5.1974510419 7.5226630985 18.6012084806  
Mg  3.9160918265 8.2624561864 14.2004028269   0 0 0
Mg  3.8800847364 5.2409177252 14.2004028269   0 0 0
Mg  3.8980882815 6.7516869558 21.4710187506  
Mg  5.1974510419 4.5011246372 20.1322038644  
Mg  3.8980882815 6.7516869558 24.5330095181  
Mg  5.1974510419 4.5011246372 17.0702130969   0 0 0
Mg  6.4968138024 6.7516869558 15.7313982107   0 0 0
Mg  6.4968138024 6.7516869558 12.6694074432   0 0 0
Ni  3.8980882815 6.7516869558 16.4008056537   0 0 0
Ni  5.1974510419 4.5011246372 12.0000000000   0 0 0
Ni  6.4968138024 6.7516869558 20.8016113075  
Ni  2.5987255210 4.5011246372 16.4008056537   0 0 0
Ni  2.5987255210 4.5011246372 12.0000000000   0 0 0
Ni  2.5987255210 4.5011246372 20.8016113075  
Nb  1.3389495356 4.5011246372 28.2659478084  
Nb  3.8585015064 4.5011246372 28.2659478084  
O  2.5987255210 5.8286363041 29.0322790065  
O  2.5987255210 3.1736129703 29.0322790065  
O  2.5987255210 4.5011246372 26.7330095181  
O  -0.3917246042 4.5011246372 28.2650711893  
O  5.5891756462 4.5011246372 28.2650711893  

